NAME : cgl_37.5673.tour
COMMENT : Length = 5673
COMMENT : Found by LKH-3 [Keld Helsgaun] Fri Nov  8 19:20:29 2024
TYPE : TOUR
DIMENSION : 37
TOUR_SECTION
4
8
7
5
6
15
14
18
12
17
11
13
16
19
20
23
21
24
25
22
26
35
34
31
28
29
30
27
32
33
36
37
1
2
3
10
9
-1
EOF
